(set-logic ALL)
(set-option :produce-models true)
(declare-sort BoundSet 0)
(declare-sort UnboundSet 0)
(declare-fun IsWearingBrownHoodie (BoundSet) Bool)
(declare-fun IsShoppingForSnacks (BoundSet) Bool)
(declare-fun IsWearingBrown (BoundSet) Bool)
(assert (not (=> (and (exists ((a BoundSet)) (and (IsWearingBrownHoodie a) (IsShoppingForSnacks a))) (and (forall ((d BoundSet)) (=> (IsWearingBrownHoodie d) (IsWearingBrown d))) (and (forall ((e BoundSet)) (=> (IsWearingBrown e) (IsWearingBrownHoodie e))) (forall ((f BoundSet)) (=> (IsShoppingForSnacks f) (IsWearingBrown f)))))) (exists ((a BoundSet)) (IsWearingBrown a)))))
(check-sat)
(get-model)